nServices=10;
nDrivers=6;
nBuses=8;
maxBuses=5;
startingTime=[700 682 564 106 893 557 534 627 384 139];
durationTime=[119 48 40 100 115 102 79 120 53 114];
durationDist=[11 35 35 26 14 47 44 13 48 19];
passengers=[45 29 33 4 13 16 16 42 50 45];
capacity=[59 54 76 50 40 25 79 39];
costTime=[0.08 0.12 0.17 0.09 0.17 0.07 0.07 0.16];
costDist=[0.28 0.15 0.19 0.18 0.17 0.12 0.2 0.29];
maxTime=[241 298 251 274 283 282];
costBM=[0.15 0.12 0.15 0.13 0.11 0.18];
costEM=[0.29 0.29 0.26 0.28 0.28 0.28];
BM=[234 214 216 150 226 188];
